
Gurobi 9.5.0 (linux64) logging started Sat Nov  4 11:39:26 2023

Set parameter LogFile to value "/lustre1/scratch/348/vsc34888/JointResearch/05.Models/06.Benchmarking/E.Representative_days_based_on_Line_Benefits_OptModel/RTS24_ByStages_nc30/openStarNet_RTS24_ByStages_nc30.log"
Set parameter Method to value 2
Set parameter MIPFocus to value 1
Set parameter Presolve to value 2
Set parameter RINS to value 100
Set parameter MIPGap to value 0.01
Set parameter Threads to value 36
Set parameter TimeLimit to value 604800
Set parameter IterationLimit to value 760000000
Gurobi Optimizer version 9.5.0 build v9.5.0rc5 (linux64)
Thread count: 36 physical cores, 36 logical processors, using up to 36 threads
Optimize a model with 13353 rows, 7608 columns and 36425 nonzeros
Model fingerprint: 0x91ec1651
Variable types: 7569 continuous, 39 integer (39 binary)
Coefficient statistics:
  Matrix range     [7e-03, 2e+03]
  Objective range  [1e+00, 1e+00]
  Bounds range     [4e-04, 3e+00]
  RHS range        [4e-04, 3e+00]
Presolve removed 6513 rows and 3214 columns
Presolve time: 0.05s
Presolved: 6840 rows, 4394 columns, 23765 nonzeros
Variable types: 4355 continuous, 39 integer (39 binary)
Found heuristic solution: objective 157.3653586
Root relaxation presolved: 6840 rows, 4394 columns, 23765 nonzeros

Root barrier log...

Ordering time: 0.00s

Barrier statistics:
 Dense cols : 39
 AA' NZ     : 5.061e+04
 Factor NZ  : 1.635e+05 (roughly 6 MB of memory)
 Factor Ops : 4.889e+06 (less than 1 second per iteration)
 Threads    : 36

                  Objective                Residual
Iter       Primal          Dual         Primal    Dual     Compl     Time
   0   5.81036804e+05 -7.87459698e+07  4.26e+00 5.99e+02  1.59e+04     0s
   1   4.82080215e+04 -2.05479574e+07  2.96e-01 4.20e-09  1.88e+03     0s
   2   1.52280970e+04 -2.35863754e+06  5.44e-03 9.17e-10  1.73e+02     0s
   3   9.37218576e+03 -1.31502893e+05  5.86e-13 3.12e-11  1.01e+01     0s
   4   1.96333066e+03 -1.75407153e+04  8.78e-13 3.64e-12  1.40e+00     0s
   5   7.12751531e+02 -5.39375897e+03  4.06e-13 1.82e-12  4.40e-01     0s
   6   4.00360516e+02 -1.74424458e+03  2.64e-13 1.82e-12  1.54e-01     0s
   7   2.55152023e+02 -5.02787997e+02  3.47e-13 3.64e-12  5.46e-02     0s
   8   1.70988280e+02 -1.80346437e+02  3.09e-13 7.28e-12  2.53e-02     0s
   9   1.43645569e+02 -3.47899525e+00  2.16e-13 7.28e-12  1.06e-02     0s
  10   1.18227187e+02  5.83892842e+01  6.32e-13 3.64e-12  4.31e-03     0s
  11   1.05418315e+02  7.97153589e+01  6.17e-13 9.09e-13  1.85e-03     0s
  12   1.02791318e+02  9.37029634e+01  8.54e-13 3.64e-12  6.54e-04     0s
  13   1.01601460e+02  9.69460156e+01  1.64e-12 1.82e-12  3.35e-04     0s
  14   1.01130623e+02  9.87742746e+01  3.20e-12 3.64e-12  1.70e-04     0s
  15   1.00767634e+02  9.96053146e+01  3.05e-12 1.82e-12  8.37e-05     0s
  16   1.00578128e+02  1.00178757e+02  4.22e-12 3.64e-12  2.88e-05     0s
  17   1.00544122e+02  1.00457414e+02  1.22e-11 3.64e-12  6.24e-06     0s
  18   1.00538034e+02  1.00511675e+02  5.58e-12 1.82e-12  1.90e-06     0s
  19   1.00532991e+02  1.00530788e+02  3.31e-11 1.82e-12  1.59e-07     0s
  20   1.00532551e+02  1.00532434e+02  2.85e-09 1.82e-12  8.42e-09     0s
  21   1.00532480e+02  1.00532479e+02  2.89e-10 1.82e-12  8.60e-11     0s
  22   1.00532479e+02  1.00532479e+02  1.41e-10 3.64e-12  3.49e-16     0s

Barrier solved model in 22 iterations and 0.30 seconds (0.19 work units)
Optimal objective 1.00532479e+02


Root relaxation: objective 1.005325e+02, 540 iterations, 0.22 seconds (0.10 work units)

    Nodes    |    Current Node    |     Objective Bounds      |     Work
 Expl Unexpl |  Obj  Depth IntInf | Incumbent    BestBd   Gap | It/Node Time

     0     0  100.53248    0   11  157.36536  100.53248  36.1%     -    0s
H    0     0                     128.8096139  100.53248  22.0%     -    0s
     0     0  104.22134    0   10  128.80961  104.22134  19.1%     -    0s
H    0     0                     113.3082635  104.22134  8.02%     -    0s
     0     0  104.95699    0   11  113.30826  104.95699  7.37%     -    0s
     0     0  105.09754    0   11  113.30826  105.09754  7.25%     -    0s
     0     0  105.26126    0   10  113.30826  105.26126  7.10%     -    0s
     0     0  105.27612    0   11  113.30826  105.27612  7.09%     -    0s
     0     0  105.27612    0   12  113.30826  105.27612  7.09%     -    0s
     0     0  105.28441    0   12  113.30826  105.28441  7.08%     -    0s
     0     0  105.47718    0   11  113.30826  105.47718  6.91%     -    1s
     0     0  105.47718    0   11  113.30826  105.47718  6.91%     -    1s
     0     0  105.47905    0   10  113.30826  105.47905  6.91%     -    1s
H    0     0                     112.7554322  105.47905  6.45%     -    2s
     0     2  105.47905    0   10  112.75543  105.47905  6.45%     -    2s
   111    55  112.15776    8    5  112.75543  108.55053  3.73%  93.4    5s

Cutting planes:
  Gomory: 5
  Implied bound: 1
  MIR: 198

Explored 550 nodes (35721 simplex iterations) in 9.67 seconds (9.70 work units)
Thread count was 36 (of 36 available processors)

Solution count 4: 112.755 113.308 128.81 157.365 

Optimal solution found (tolerance 1.00e-02)
Best objective 1.127554321568e+02, best bound 1.116445789388e+02, gap 0.9852%

Gurobi 9.5.0 (linux64) logging started Sat Nov  4 11:39:36 2023

Set parameter LogFile to value "/lustre1/scratch/348/vsc34888/JointResearch/05.Models/06.Benchmarking/E.Representative_days_based_on_Line_Benefits_OptModel/RTS24_ByStages_nc30/openStarNet_RTS24_ByStages_nc30.log"
Set parameter Method to value 2
Set parameter MIPFocus to value 1
Set parameter Presolve to value 2
Set parameter RINS to value 100
Set parameter MIPGap to value 0.01
Set parameter Threads to value 36
Set parameter TimeLimit to value 604800
Set parameter IterationLimit to value 760000000
No parameters matching 'relax_integrality' found
Gurobi Optimizer version 9.5.0 build v9.5.0rc5 (linux64)
Thread count: 36 physical cores, 36 logical processors, using up to 36 threads
Optimize a model with 13353 rows, 7569 columns and 31706 nonzeros
Model fingerprint: 0xd88b2428
Coefficient statistics:
  Matrix range     [7e-03, 2e+03]
  Objective range  [1e+00, 1e+00]
  Bounds range     [4e-04, 3e+00]
  RHS range        [4e-04, 3e+01]
Presolve removed 10597 rows and 3552 columns
Presolve time: 0.01s
Presolved: 2756 rows, 4077 columns, 10069 nonzeros

Ordering time: 0.00s

Barrier statistics:
 AA' NZ     : 7.015e+03
 Factor NZ  : 3.004e+04 (roughly 2 MB of memory)
 Factor Ops : 4.528e+05 (less than 1 second per iteration)
 Threads    : 1

                  Objective                Residual
Iter       Primal          Dual         Primal    Dual     Compl     Time
   0   6.95021655e+05 -2.38146459e+08  5.97e+00 1.04e+03  6.82e+04     0s
   1   7.67187696e+04 -3.66263969e+07  5.08e-01 5.82e-11  6.94e+03     0s
   2   3.97569751e+04 -3.57861224e+06  1.39e-01 6.84e-11  6.42e+02     0s
   3   2.17939250e+04 -3.24804184e+05  6.41e-03 2.65e-11  5.04e+01     0s
   4   7.61487341e+03 -6.93073546e+04  2.03e-05 5.14e-10  1.10e+01     0s
   5   3.11630938e+03 -1.45312126e+04  4.20e-06 1.03e-10  2.52e+00     0s
   6   5.87681521e+02 -1.87917288e+03  5.93e-08 1.15e-11  3.53e-01     0s
   7   3.25852371e+02 -6.09214091e+02  2.04e-08 3.95e-12  1.34e-01     0s
   8   1.94983080e+02 -1.39705383e+02  6.04e-09 7.28e-12  4.79e-02     0s
   9   1.40141654e+02  7.03547680e+01  1.64e-09 1.46e-11  9.98e-03     0s
  10   1.19976709e+02  9.74368806e+01  3.59e-10 1.46e-11  3.22e-03     0s
  11   1.15756639e+02  1.07776802e+02  1.43e-10 3.64e-12  1.14e-03     0s
  12   1.13903627e+02  1.11778047e+02  5.33e-11 2.91e-11  3.04e-04     0s
  13   1.12780250e+02  1.12710108e+02  1.54e-12 3.64e-12  1.00e-05     0s
  14   1.12755444e+02  1.12755365e+02  3.80e-12 7.28e-12  1.12e-08     0s
  15   1.12755432e+02  1.12755432e+02  3.87e-12 3.64e-12  1.12e-11     0s
  16   1.12755432e+02  1.12755432e+02  2.41e-12 7.28e-12  1.12e-14     0s

Barrier solved model in 16 iterations and 0.05 seconds (0.04 work units)
Optimal objective 1.12755432e+02

Crossover log...

     320 DPushes remaining with DInf 0.0000000e+00                 0s
       0 DPushes remaining with DInf 0.0000000e+00                 0s

     201 PPushes remaining with PInf 0.0000000e+00                 0s
       0 PPushes remaining with PInf 0.0000000e+00                 0s

  Push phase complete: Pinf 0.0000000e+00, Dinf 1.0953426e-12      0s

Iteration    Objective       Primal Inf.    Dual Inf.      Time
     207    1.1275543e+02   0.000000e+00   0.000000e+00      0s

Use crossover to convert LP symmetric solution to basic solution...
Crossover log...

       0 DPushes remaining with DInf 0.0000000e+00                 0s

     103 PPushes remaining with PInf 0.0000000e+00                 0s
       0 PPushes remaining with PInf 0.0000000e+00                 0s

  Push phase complete: Pinf 0.0000000e+00, Dinf 1.5657508e-12      0s

Iteration    Objective       Primal Inf.    Dual Inf.      Time
     314    1.1275543e+02   0.000000e+00   0.000000e+00      0s

Solved in 314 iterations and 0.07 seconds (0.05 work units)
Optimal objective  1.127554322e+02

Gurobi 9.5.0 (linux64) logging started Sat Nov  4 12:08:10 2023

Set parameter LogFile to value "/lustre1/scratch/348/vsc34888/JointResearch/05.Models/06.Benchmarking/E.Representative_days_based_on_Line_Benefits_OptModel/RTS24_ByStages_nc30/openStarNet_RTS24_ByStages_nc30.log"
Set parameter Method to value 2
Set parameter MIPFocus to value 1
Set parameter Presolve to value 2
Set parameter RINS to value 100
Set parameter MIPGap to value 0.01
Set parameter Threads to value 36
Set parameter TimeLimit to value 604800
Set parameter IterationLimit to value 760000000
Gurobi Optimizer version 9.5.0 build v9.5.0rc5 (linux64)
Thread count: 36 physical cores, 36 logical processors, using up to 36 threads
Optimize a model with 13353 rows, 7608 columns and 36425 nonzeros
Model fingerprint: 0x21b02072
Variable types: 7569 continuous, 39 integer (39 binary)
Coefficient statistics:
  Matrix range     [7e-03, 2e+03]
  Objective range  [1e+00, 1e+00]
  Bounds range     [4e-04, 3e+00]
  RHS range        [4e-04, 3e+00]
Presolve removed 6513 rows and 3214 columns
Presolve time: 0.05s
Presolved: 6840 rows, 4394 columns, 23765 nonzeros
Variable types: 4355 continuous, 39 integer (39 binary)
Found heuristic solution: objective 157.3653586
Root relaxation presolved: 6840 rows, 4394 columns, 23765 nonzeros

Root barrier log...

Ordering time: 0.00s

Barrier statistics:
 Dense cols : 39
 AA' NZ     : 5.061e+04
 Factor NZ  : 1.642e+05 (roughly 6 MB of memory)
 Factor Ops : 4.909e+06 (less than 1 second per iteration)
 Threads    : 36

                  Objective                Residual
Iter       Primal          Dual         Primal    Dual     Compl     Time
   0   5.81036804e+05 -7.87459698e+07  4.26e+00 5.99e+02  1.59e+04     0s
   1   4.82080215e+04 -2.05479574e+07  2.96e-01 2.52e-09  1.88e+03     0s
   2   1.52280970e+04 -2.35863754e+06  5.44e-03 7.09e-10  1.73e+02     0s
   3   9.37218576e+03 -1.31502893e+05  8.69e-13 5.37e-11  1.01e+01     0s
   4   1.96333066e+03 -1.75407153e+04  5.51e-13 7.28e-12  1.40e+00     0s
   5   7.12751531e+02 -5.39375897e+03  3.87e-13 1.82e-12  4.40e-01     0s
   6   4.00360516e+02 -1.74424458e+03  3.28e-13 3.64e-12  1.54e-01     0s
   7   2.55152023e+02 -5.02787997e+02  2.08e-13 1.82e-12  5.46e-02     0s
   8   1.70988280e+02 -1.80346437e+02  2.82e-13 1.82e-12  2.53e-02     0s
   9   1.43645569e+02 -3.47899525e+00  2.73e-13 1.82e-12  1.06e-02     0s
  10   1.18227187e+02  5.83892842e+01  2.76e-13 1.82e-12  4.31e-03     0s
  11   1.05418315e+02  7.97153589e+01  8.05e-13 1.82e-12  1.85e-03     0s
  12   1.02791318e+02  9.37029634e+01  8.03e-13 1.82e-12  6.54e-04     0s
  13   1.01601460e+02  9.69460156e+01  1.80e-12 3.64e-12  3.35e-04     0s
  14   1.01130623e+02  9.87742746e+01  1.38e-12 1.82e-12  1.70e-04     0s
  15   1.00767634e+02  9.96053146e+01  4.08e-12 1.82e-12  8.37e-05     0s
  16   1.00578128e+02  1.00178757e+02  2.76e-12 3.64e-12  2.88e-05     0s
  17   1.00544122e+02  1.00457414e+02  4.60e-12 1.82e-12  6.24e-06     0s
  18   1.00538034e+02  1.00511675e+02  7.46e-10 3.64e-12  1.90e-06     0s
  19   1.00532991e+02  1.00530788e+02  1.49e-10 1.82e-12  1.59e-07     0s
  20   1.00532551e+02  1.00532434e+02  1.54e-09 3.64e-12  8.42e-09     0s
  21   1.00532480e+02  1.00532479e+02  1.65e-10 1.82e-12  8.60e-11     0s
  22   1.00532479e+02  1.00532479e+02  2.41e-10 1.82e-12  4.62e-16     0s

Barrier solved model in 22 iterations and 0.28 seconds (0.19 work units)
Optimal objective 1.00532479e+02


Root relaxation: objective 1.005325e+02, 542 iterations, 0.21 seconds (0.10 work units)

    Nodes    |    Current Node    |     Objective Bounds      |     Work
 Expl Unexpl |  Obj  Depth IntInf | Incumbent    BestBd   Gap | It/Node Time

     0     0  100.53248    0   11  157.36536  100.53248  36.1%     -    0s
H    0     0                     128.8096139  100.53248  22.0%     -    0s
     0     0  104.22688    0   11  128.80961  104.22688  19.1%     -    0s
H    0     0                     113.3082635  104.22688  8.01%     -    0s
     0     0  104.95699    0   11  113.30826  104.95699  7.37%     -    0s
     0     0  104.95699    0   11  113.30826  104.95699  7.37%     -    0s
     0     0  105.08491    0   12  113.30826  105.08491  7.26%     -    0s
     0     0  105.08491    0   12  113.30826  105.08491  7.26%     -    0s
     0     0  105.23920    0   11  113.30826  105.23920  7.12%     -    0s
     0     0  105.23950    0   11  113.30826  105.23950  7.12%     -    0s
     0     0  105.47688    0   11  113.30826  105.47688  6.91%     -    1s
     0     0  105.49442    0   10  113.30826  105.49442  6.90%     -    1s
     0     0  105.49730    0   10  113.30826  105.49730  6.89%     -    1s
     0     0  105.49916    0    9  113.30826  105.49916  6.89%     -    1s
     0     2  105.49916    0    9  113.30826  105.49916  6.89%     -    2s
H   11    10                     112.8874289  107.02147  5.20%   140    2s
*   89    43               7     112.7554322  108.55089  3.73%  90.8    2s
   145    72  111.33557    9    5  112.75543  108.55780  3.72%  81.5    6s

Cutting planes:
  Gomory: 5
  Implied bound: 9
  MIR: 211

Explored 558 nodes (33950 simplex iterations) in 8.21 seconds (8.53 work units)
Thread count was 36 (of 36 available processors)

Solution count 5: 112.755 112.887 113.308 ... 157.365

Optimal solution found (tolerance 1.00e-02)
Best objective 1.127554321568e+02, best bound 1.122634677886e+02, gap 0.4363%

Gurobi 9.5.0 (linux64) logging started Sat Nov  4 12:08:19 2023

Set parameter LogFile to value "/lustre1/scratch/348/vsc34888/JointResearch/05.Models/06.Benchmarking/E.Representative_days_based_on_Line_Benefits_OptModel/RTS24_ByStages_nc30/openStarNet_RTS24_ByStages_nc30.log"
Set parameter Method to value 2
Set parameter MIPFocus to value 1
Set parameter Presolve to value 2
Set parameter RINS to value 100
Set parameter MIPGap to value 0.01
Set parameter Threads to value 36
Set parameter TimeLimit to value 604800
Set parameter IterationLimit to value 760000000
No parameters matching 'relax_integrality' found
Gurobi Optimizer version 9.5.0 build v9.5.0rc5 (linux64)
Thread count: 36 physical cores, 36 logical processors, using up to 36 threads
Optimize a model with 13353 rows, 7569 columns and 31706 nonzeros
Model fingerprint: 0x0ad0bdee
Coefficient statistics:
  Matrix range     [7e-03, 2e+03]
  Objective range  [1e+00, 1e+00]
  Bounds range     [4e-04, 3e+00]
  RHS range        [4e-04, 3e+01]
Presolve removed 10597 rows and 3552 columns
Presolve time: 0.01s
Presolved: 2756 rows, 4077 columns, 10069 nonzeros

Ordering time: 0.00s

Barrier statistics:
 AA' NZ     : 6.988e+03
 Factor NZ  : 2.993e+04 (roughly 2 MB of memory)
 Factor Ops : 4.506e+05 (less than 1 second per iteration)
 Threads    : 1

                  Objective                Residual
Iter       Primal          Dual         Primal    Dual     Compl     Time
   0   6.95312140e+05 -2.38143160e+08  5.97e+00 1.04e+03  6.82e+04     0s
   1   7.66553673e+04 -3.66288671e+07  5.07e-01 4.81e-11  6.94e+03     0s
   2   3.97518850e+04 -3.57540645e+06  1.39e-01 4.07e-11  6.42e+02     0s
   3   2.18067788e+04 -3.23883063e+05  6.43e-03 4.37e-11  5.03e+01     0s
   4   7.55153257e+03 -6.69828810e+04  8.85e-07 9.00e-10  1.07e+01     0s
   5   3.13489335e+03 -1.37467740e+04  1.93e-07 1.68e-10  2.42e+00     0s
   6   5.84763690e+02 -1.83821979e+03  3.56e-09 1.65e-11  3.47e-01     0s
   7   3.18037126e+02 -6.05746757e+02  1.18e-09 1.46e-11  1.32e-01     0s
   8   1.93771018e+02 -1.38907898e+02  3.56e-10 1.46e-11  4.76e-02     0s
   9   1.34617022e+02  2.97726595e+01  6.65e-11 7.28e-12  1.50e-02     0s
  10   1.19636445e+02  8.83270792e+01  1.66e-11 1.46e-11  4.48e-03     0s
  11   1.15912279e+02  1.04855099e+02  6.99e-12 1.46e-11  1.58e-03     0s
  12   1.13846707e+02  1.10958780e+02  2.31e-12 7.28e-12  4.13e-04     0s
  13   1.12813967e+02  1.12520002e+02  9.43e-13 7.28e-12  4.21e-05     0s
  14   1.12755771e+02  1.12753461e+02  1.46e-12 7.28e-12  3.31e-07     0s
  15   1.12755432e+02  1.12755430e+02  6.41e-13 7.28e-12  3.31e-10     0s
  16   1.12755432e+02  1.12755432e+02  1.54e-12 3.64e-12  3.31e-13     0s

Barrier solved model in 16 iterations and 0.05 seconds (0.04 work units)
Optimal objective 1.12755432e+02

Crossover log...

     316 DPushes remaining with DInf 0.0000000e+00                 0s
       0 DPushes remaining with DInf 0.0000000e+00                 0s

     198 PPushes remaining with PInf 0.0000000e+00                 0s
       0 PPushes remaining with PInf 0.0000000e+00                 0s

  Push phase complete: Pinf 0.0000000e+00, Dinf 1.0389467e-12      0s

Iteration    Objective       Primal Inf.    Dual Inf.      Time
     203    1.1275543e+02   0.000000e+00   0.000000e+00      0s

Use crossover to convert LP symmetric solution to basic solution...
Crossover log...

       0 DPushes remaining with DInf 0.0000000e+00                 0s

     100 PPushes remaining with PInf 0.0000000e+00                 0s
       0 PPushes remaining with PInf 0.0000000e+00                 0s

  Push phase complete: Pinf 0.0000000e+00, Dinf 2.0461819e-12      0s

Iteration    Objective       Primal Inf.    Dual Inf.      Time
     307    1.1275543e+02   0.000000e+00   0.000000e+00      0s

Solved in 307 iterations and 0.08 seconds (0.05 work units)
Optimal objective  1.127554322e+02

Gurobi 11.0.0 (linux64) logging started Wed Apr 10 22:01:28 2024

Set parameter LogFile to value "/lustre1/scratch/348/vsc34888/JointResearch/05.Models/06.Benchmarking/E.Representative_days_based_on_Line_Benefits_OptModel/RTS24_ByStages_nc30/openStarNet_RTS24_ByStages_nc30.log"
Set parameter Method to value 2
Set parameter MIPFocus to value 1
Set parameter Presolve to value 2
Set parameter RINS to value 100
Set parameter MIPGap to value 0.01
Set parameter Threads to value 36
Set parameter TimeLimit to value 259200
Set parameter IterationLimit to value 760000000
Gurobi Optimizer version 11.0.0 build v11.0.0rc2 (linux64 - "Rocky Linux 8.8 (Green Obsidian)")

CPU model: Intel(R) Xeon(R) Gold 6240 CPU @ 2.60GHz, instruction set [SSE2|AVX|AVX2|AVX512]
Thread count: 36 physical cores, 36 logical processors, using up to 36 threads

Optimize a model with 11673 rows, 7009 columns and 31166 nonzeros
Model fingerprint: 0x53f7642c
Variable types: 6979 continuous, 30 integer (30 binary)
Coefficient statistics:
  Matrix range     [1e-03, 3e+03]
  Objective range  [1e+00, 1e+00]
  Bounds range     [4e-04, 3e+00]
  RHS range        [4e-04, 3e+00]
Presolve removed 6266 rows and 3290 columns
Presolve time: 0.05s
Presolved: 5407 rows, 3719 columns, 19056 nonzeros
Variable types: 3689 continuous, 30 integer (30 binary)
Found heuristic solution: objective 300.1473747
Root relaxation presolved: 5407 rows, 3719 columns, 19056 nonzeros

Root barrier log...

Ordering time: 0.00s

Barrier statistics:
 Dense cols : 30
 AA' NZ     : 4.000e+04
 Factor NZ  : 1.045e+05 (roughly 5 MB of memory)
 Factor Ops : 2.226e+06 (less than 1 second per iteration)
 Threads    : 36

                  Objective                Residual
Iter       Primal          Dual         Primal    Dual     Compl     Time
   0   1.96563300e+06 -1.04492774e+08  1.75e+01 7.83e+02  5.21e+04     0s
   1   5.55085205e+05 -5.05976366e+07  4.78e+00 2.04e-09  1.29e+04     0s
   2   7.87539150e+04 -3.58137947e+07  5.70e-01 1.31e-09  3.97e+03     0s
   3   2.83069254e+04 -4.61931681e+06  6.33e-02 3.72e-10  4.34e+02     0s
   4   1.76799179e+04 -3.95148863e+05  1.82e-13 1.48e-10  3.61e+01     0s
   5   5.85075542e+03 -8.37320069e+04  1.13e-13 2.97e-11  7.84e+00     0s
   6   1.48084311e+03 -1.42867096e+04  1.47e-13 4.31e-12  1.38e+00     0s
   7   7.62960272e+02 -7.61583510e+03  1.18e-13 3.64e-12  7.33e-01     0s
   8   4.62738200e+02 -1.74563769e+03  1.59e-13 3.64e-12  1.93e-01     0s
   9   3.66955126e+02 -4.06760506e+02  1.02e-13 1.82e-12  6.77e-02     0s
  10   2.83647689e+02 -4.62880424e+00  3.44e-13 3.64e-12  2.52e-02     0s
  11   2.29368645e+02  1.27872433e+02  3.26e-13 3.64e-12  8.88e-03     0s
  12   2.02375674e+02  1.61054612e+02  4.29e-13 1.82e-12  3.62e-03     0s
  13   1.91347398e+02  1.69597433e+02  1.57e-12 1.82e-12  1.90e-03     0s
  14   1.88502734e+02  1.76502455e+02  1.36e-12 9.09e-13  1.05e-03     0s
  15   1.86113347e+02  1.79355421e+02  2.74e-12 3.64e-12  5.91e-04     0s
  16   1.84433308e+02  1.81519903e+02  3.70e-12 3.64e-12  2.55e-04     0s
  17   1.83457500e+02  1.81722988e+02  6.38e-12 3.64e-12  1.52e-04     0s
  18   1.83210754e+02  1.82344551e+02  7.63e-12 1.82e-12  7.58e-05     0s
  19   1.82982288e+02  1.82607536e+02  1.79e-11 3.64e-12  3.28e-05     0s
  20   1.82865575e+02  1.82716312e+02  2.40e-11 3.64e-12  1.31e-05     0s
  21   1.82777280e+02  1.82750659e+02  1.87e-11 3.64e-12  2.33e-06     0s
  22   1.82768408e+02  1.82765113e+02  1.62e-09 7.28e-12  2.88e-07     0s
  23   1.82767960e+02  1.82766803e+02  1.00e-09 3.23e-12  1.01e-07     0s
  24   1.82767429e+02  1.82767248e+02  2.16e-10 7.28e-12  1.59e-08     0s
  25   1.82767300e+02  1.82767285e+02  2.86e-10 3.64e-12  1.37e-09     0s
  26   1.82767292e+02  1.82767292e+02  9.72e-11 3.64e-12  4.74e-12     0s

Barrier solved model in 26 iterations and 0.24 seconds (0.17 work units)
Optimal objective 1.82767292e+02


Root relaxation: objective 1.827673e+02, 757 iterations, 0.18 seconds (0.09 work units)

    Nodes    |    Current Node    |     Objective Bounds      |     Work
 Expl Unexpl |  Obj  Depth IntInf | Incumbent    BestBd   Gap | It/Node Time

     0     0  182.76729    0   22  300.14737  182.76729  39.1%     -    0s
H    0     0                     248.0468922  185.72279  25.1%     -    0s
     0     0  185.72279    0   17  248.04689  185.72279  25.1%     -    0s
     0     0  185.72279    0   17  248.04689  185.72279  25.1%     -    0s
     0     0  186.12717    0   19  248.04689  186.12717  25.0%     -    0s
     0     0  186.13110    0   19  248.04689  186.13110  25.0%     -    0s
     0     0  186.32255    0   18  248.04689  186.32255  24.9%     -    0s
     0     0  186.34121    0   19  248.04689  186.34121  24.9%     -    0s
     0     0  186.37247    0   19  248.04689  186.37247  24.9%     -    0s
     0     0  186.37332    0   19  248.04689  186.37332  24.9%     -    0s
     0     0  186.42867    0   19  248.04689  186.42867  24.8%     -    1s
     0     0  186.92219    0   19  248.04689  186.92219  24.6%     -    1s
     0     0  186.97224    0   17  248.04689  186.97224  24.6%     -    1s
H    0     0                     243.3336972  188.28162  22.6%     -    1s
     0     0  188.28162    0   17  243.33370  188.28162  22.6%     -    1s
H    0     0                     215.7171152  188.28162  12.7%     -    7s
     0     2  188.28162    0   17  215.71712  188.28162  12.7%     -    7s
H   97   127                     214.0551922  192.54249  10.1%   223   16s
H   98   127                     213.8447289  192.54249  10.0%   222   16s
H  100   127                     213.5345102  192.54249  9.83%   219   16s
H  121   127                     213.4128303  192.54249  9.78%   205   16s
   300   288  200.55695   10   13  213.41283  192.54249  9.78%   163   23s
H  307   288                     213.4091668  192.54249  9.78%   162   23s
  1253   501     cutoff   11       213.40917  194.19526  9.00%   131   29s
  1327   518  200.36033   10   13  213.40917  194.19526  9.00%   130   30s
  1698   522     cutoff   12       213.40917  196.25875  8.04%   126   40s
  4890   767     cutoff   13       213.40917  205.86137  3.54%   103   47s
 11195   140     cutoff   16       213.40917  211.09730  1.08%  81.4   52s

Cutting planes:
  Gomory: 3
  Implied bound: 74
  MIR: 204
  Relax-and-lift: 2

Explored 11706 nodes (933410 simplex iterations) in 52.96 seconds (72.07 work units)
Thread count was 36 (of 36 available processors)

Solution count 9: 213.409 213.413 213.535 ... 300.147

Optimal solution found (tolerance 1.00e-02)
Best objective 2.134091668348e+02, best bound 2.115660528593e+02, gap 0.8637%

Gurobi 11.0.0 (linux64) logging started Wed Apr 10 22:02:22 2024

Set parameter LogFile to value "/lustre1/scratch/348/vsc34888/JointResearch/05.Models/06.Benchmarking/E.Representative_days_based_on_Line_Benefits_OptModel/RTS24_ByStages_nc30/openStarNet_RTS24_ByStages_nc30.log"
Set parameter Method to value 2
Set parameter MIPFocus to value 1
Set parameter Presolve to value 2
Set parameter RINS to value 100
Set parameter MIPGap to value 0.01
Set parameter Threads to value 36
Set parameter TimeLimit to value 259200
Set parameter IterationLimit to value 760000000
Gurobi Optimizer version 11.0.0 build v11.0.0rc2 (linux64 - "Rocky Linux 8.8 (Green Obsidian)")

CPU model: Intel(R) Xeon(R) Gold 6240 CPU @ 2.60GHz, instruction set [SSE2|AVX|AVX2|AVX512]
Thread count: 36 physical cores, 36 logical processors, using up to 36 threads

Optimize a model with 11673 rows, 6979 columns and 27536 nonzeros
Model fingerprint: 0x30a64d43
Coefficient statistics:
  Matrix range     [1e-03, 3e+03]
  Objective range  [1e+00, 1e+00]
  Bounds range     [4e-04, 3e+00]
  RHS range        [4e-04, 5e+01]
Presolve removed 9922 rows and 4023 columns
Presolve time: 0.01s
Presolved: 1751 rows, 3003 columns, 7873 nonzeros

Ordering time: 0.00s

Barrier statistics:
 AA' NZ     : 4.290e+03
 Factor NZ  : 1.437e+04 (roughly 2 MB of memory)
 Factor Ops : 1.954e+05 (less than 1 second per iteration)
 Threads    : 1

                  Objective                Residual
Iter       Primal          Dual         Primal    Dual     Compl     Time
   0   2.79556511e+06 -9.28376157e+07  1.04e+01 8.72e+03  2.08e+05     0s
   1   1.82610165e+05 -6.77883335e+07  5.96e-01 1.13e-10  2.31e+04     0s
   2   6.22954471e+04 -1.53599554e+07  1.38e-01 2.35e-10  3.99e+03     0s
   3   3.74836232e+04 -3.51361436e+06  2.85e-02 1.71e-10  7.98e+02     0s
   4   2.47187186e+04 -2.61765494e+05  1.14e-12 9.20e-11  5.98e+01     0s
   5   6.80458379e+03 -5.03223073e+04  9.56e-13 3.85e-11  1.19e+01     0s
   6   1.23872064e+03 -5.04603556e+03  1.00e-12 2.91e-11  1.31e+00     0s
   7   6.66230540e+02 -1.83355202e+03  2.62e-13 2.91e-11  5.21e-01     0s
   8   4.75824624e+02 -5.58030231e+02  9.55e-14 1.46e-11  2.16e-01     0s
   9   3.32015125e+02 -1.93189404e+02  1.11e-13 1.46e-11  1.10e-01     0s
  10   2.91114961e+02  3.16485617e+01  1.72e-13 1.46e-11  5.41e-02     0s
  11   2.49971838e+02  1.30026395e+02  3.13e-13 1.46e-11  2.50e-02     0s
  12   2.28652786e+02  1.71007525e+02  3.23e-13 2.91e-11  1.20e-02     0s
  13   2.19463173e+02  1.95469056e+02  4.29e-13 3.64e-12  5.01e-03     0s
  14   2.15229571e+02  2.09884417e+02  9.17e-13 2.91e-11  1.11e-03     0s
  15   2.13692127e+02  2.12727479e+02  6.46e-13 1.46e-11  2.01e-04     0s
  16   2.13440221e+02  2.13243203e+02  6.32e-13 7.28e-12  4.11e-05     0s
  17   2.13418663e+02  2.13381041e+02  1.43e-12 2.91e-11  7.85e-06     0s
  18   2.13409824e+02  2.13404228e+02  1.05e-12 1.46e-11  1.17e-06     0s
  19   2.13409173e+02  2.13409068e+02  2.25e-12 1.46e-11  2.19e-08     0s
  20   2.13409167e+02  2.13409166e+02  4.46e-13 2.91e-11  3.39e-10     0s
  21   2.13409167e+02  2.13409167e+02  6.51e-13 1.46e-11  3.39e-13     0s

Barrier solved model in 21 iterations and 0.04 seconds (0.04 work units)
Optimal objective 2.13409167e+02

Crossover log...

     324 DPushes remaining with DInf 0.0000000e+00                 0s
       0 DPushes remaining with DInf 0.0000000e+00                 0s

     110 PPushes remaining with PInf 0.0000000e+00                 0s
       0 PPushes remaining with PInf 0.0000000e+00                 0s

  Push phase complete: Pinf 0.0000000e+00, Dinf 1.2608277e-12      0s

Iteration    Objective       Primal Inf.    Dual Inf.      Time
     121    2.1340917e+02   0.000000e+00   0.000000e+00      0s

Use crossover to convert LP symmetric solution to basic solution...
Crossover log...

       0 DPushes remaining with DInf 0.0000000e+00                 0s

      73 PPushes remaining with PInf 0.0000000e+00                 0s
       0 PPushes remaining with PInf 0.0000000e+00                 0s

  Push phase complete: Pinf 0.0000000e+00, Dinf 1.7483140e-12      0s

Iteration    Objective       Primal Inf.    Dual Inf.      Time
     199    2.1340917e+02   0.000000e+00   0.000000e+00      0s

Solved in 199 iterations and 0.05 seconds (0.04 work units)
Optimal objective  2.134091668e+02
